
Gurobi 13.0.1 (linux64) logging started Fri Mar 27 07:54:26 2026

Set parameter LogFile to value "logs_sparse/100B_6F_robust_gamma_0d2_theta_0d05199999999999999_2026-03-27_07h53m29s.log"
Set parameter MIPGap to value 0.005
Set parameter OptimalityTol to value 0.005
Gurobi Optimizer version 13.0.1 build v13.0.1rc0 (linux64 - "Linux Mint 22")

CPU model: 12th Gen Intel(R) Core(TM) i7-12700, instruction set [SSE2|AVX|AVX2]
Thread count: 20 physical cores, 20 logical processors, using up to 20 threads

Non-default parameters:
TimeLimit  3600
SoftMemLimit  12
MIPGap  0.005
OptimalityTol  0.005

Optimize a model with 120301 rows, 3061121 columns and 9258486 nonzeros (Max)
Model fingerprint: 0x9261bd85
Model has 2970111 linear objective coefficients
Variable types: 31121 continuous, 3030000 integer (3030000 binary)
Coefficient statistics:
  Matrix range     [3e-05, 1e+05]
  Objective range  [1e+00, 3e+03]
  Bounds range     [1e+00, 1e+05]
  RHS range        [1e+00, 1e+05]

Presolve removed 78617 rows and 2622635 columns
Presolve time: 1.57s
Presolved: 41684 rows, 438486 columns, 1406966 nonzeros
Variable types: 10841 continuous, 427645 integer (427645 binary)
Found heuristic solution: objective -4.57072e+08
Performing another presolve...
Presolve added 0 rows and 10 columns
Presolve removed 20 rows and 0 columns
Presolve time: 2.06s
Deterministic concurrent LP optimizer: primal simplex, dual simplex, and barrier
Showing barrier log only...

Root barrier log...

Ordering time: 0.92s

Barrier statistics:
 AA' NZ     : 7.117e+05
 Factor NZ  : 5.951e+06 (roughly 240 MB of memory)
 Factor Ops : 1.649e+09 (less than 1 second per iteration)
 Threads    : 18

                  Objective                Residual
Iter       Primal          Dual         Primal    Dual     Compl     Time
   0  -2.42808066e+12  1.78614775e+09  4.66e+07 1.02e+03  1.63e+07     6s
   1  -3.05266788e+11  3.63403898e+09  5.87e+06 1.51e+03  2.09e+06     7s
   2  -5.84920497e+09  2.95809072e+09  1.18e+05 2.39e+01  4.52e+04     7s
   3  -2.51175130e+08  3.01807775e+09  9.91e+03 4.80e-11  6.33e+03     7s
   4   2.42011639e+08  1.60511641e+09  7.71e+02 5.75e-11  1.69e+03     7s
   5   3.11812681e+08  6.72436116e+08  6.34e+01 6.68e-02  4.15e+02     7s
   6   3.43896800e+08  4.93753549e+08  1.81e+01 4.91e-02  1.71e+02     7s
   7   3.53821120e+08  4.13618988e+08  5.51e+00 2.59e-02  6.76e+01     7s
   8   3.56965237e+08  3.81336840e+08  1.46e+00 9.81e-03  2.73e+01     7s
   9   3.57799625e+08  3.65091939e+08  5.99e-01 2.62e-03  8.16e+00     7s
  10   3.58309365e+08  3.62444257e+08  1.99e-01 1.02e-03  4.62e+00     8s
  11   3.58581544e+08  3.59850754e+08  4.11e-02 1.46e-04  1.41e+00     8s
  12   3.58648921e+08  3.59385742e+08  2.09e-02 6.72e-05  8.21e-01     8s
  13   3.58715639e+08  3.59018943e+08  4.58e-03 1.83e-05  3.38e-01     8s
  14   3.58731192e+08  3.58925045e+08  2.44e-03 1.04e-05  2.16e-01     8s
  15   3.58741598e+08  3.58849762e+08  1.12e-03 4.40e-06  1.21e-01     8s
  16   3.58745572e+08  3.58810431e+08  7.29e-04 1.93e-06  7.23e-02     8s
  17   3.58748712e+08  3.58788998e+08  4.62e-04 8.04e-07  4.49e-02     8s
  18   3.58750162e+08  3.58782859e+08  3.60e-04 5.45e-07  3.64e-02     8s
  19   3.58752283e+08  3.58774921e+08  2.17e-04 2.32e-07  2.52e-02     8s
  20   3.58752960e+08  3.58770425e+08  1.73e-04 1.03e-07  1.95e-02     9s
  21   3.58753631e+08  3.58768487e+08  1.33e-04 5.26e-08  1.66e-02     9s
  22   3.58754360e+08  3.58763941e+08  8.93e-05 8.31e-10  1.07e-02     9s
  23   3.58754803e+08  3.58762159e+08  6.47e-05 9.34e-10  8.20e-03     9s
  24   3.58755182e+08  3.58760787e+08  4.52e-05 9.76e-10  6.25e-03     9s
  25   3.58755519e+08  3.58759586e+08  2.70e-05 1.03e-09  4.53e-03     9s
  26   3.58755645e+08  3.58758774e+08  2.06e-05 1.02e-09  3.49e-03     9s
  27   3.58755752e+08  3.58757878e+08  1.54e-05 8.83e-10  2.37e-03     9s
  28   3.58755864e+08  3.58757057e+08  1.03e-05 6.45e-10  1.33e-03    10s
  29   3.58755941e+08  3.58756759e+08  7.09e-06 6.99e-10  9.11e-04    10s
  30   3.58756019e+08  3.58756560e+08  4.13e-06 7.95e-10  6.03e-04    10s
  31   3.58756055e+08  3.58756388e+08  2.60e-06 7.47e-10  3.70e-04    10s
  32   3.58756076e+08  3.58756313e+08  1.81e-06 8.11e-10  2.64e-04    10s
  33   3.58756088e+08  3.58756266e+08  1.36e-06 9.35e-10  1.98e-04    10s
  34   3.58756106e+08  3.58756229e+08  7.62e-07 9.45e-10  1.37e-04    10s
  35   3.58756110e+08  3.58756199e+08  6.10e-07 9.11e-10  9.90e-05    10s
  36   3.58756119e+08  3.58756155e+08  3.32e-07 6.71e-10  4.02e-05    10s
  37   3.58756122e+08  3.58756145e+08  2.20e-07 6.54e-10  2.52e-05    10s
  38   3.58756125e+08  3.58756137e+08  1.27e-07 6.41e-10  1.30e-05    11s
  39   3.58756127e+08  3.58756135e+08  4.99e-08 7.17e-10  8.42e-06    11s
  40   3.58756128e+08  3.58756132e+08  2.75e-08 6.89e-10  4.13e-06    11s
  41   3.58756129e+08  3.58756130e+08  4.35e-09 5.25e-10  1.10e-06    11s
  42   3.58756129e+08  3.58756129e+08  3.05e-09 5.90e-10  5.59e-07    11s

Barrier solved model in 42 iterations and 11.12 seconds (14.90 work units)
Optimal objective 3.58756129e+08


Root crossover log...

   13590 DPushes remaining with DInf 0.0000000e+00                11s
       0 DPushes remaining with DInf 0.0000000e+00                11s

    9068 PPushes remaining with PInf 2.2674259e-01                11s
       0 PPushes remaining with PInf 0.0000000e+00                12s

  Push phase complete: Pinf 0.0000000e+00, Dinf 1.8862078e+05     12s


Root simplex log...

Iteration    Objective       Primal Inf.    Dual Inf.      Time
   22298    3.5875613e+08   0.000000e+00   1.886205e+05     12s
   26365    3.5875613e+08   0.000000e+00   0.000000e+00     13s
Crossover time: 1.80 seconds (1.87 work units)
Concurrent spin time: 0.48s

Solved with barrier

Root relaxation: objective 3.587561e+08, 26365 iterations, 8.68 seconds (9.24 work units)
Total elapsed time = 13.43s (DegenMoves)

    Nodes    |    Current Node    |     Objective Bounds      |     Work
 Expl Unexpl |  Obj  Depth IntInf | Incumbent    BestBd   Gap | It/Node Time

     0     0 3.5876e+08    0 7925 -4.571e+08 3.5876e+08   178%     -   14s
H    0     0                    1.146963e+08 3.5876e+08   213%     -   15s
H    0     0                    2.694820e+08 3.5876e+08  33.1%     -   15s
H    0     0                    2.874858e+08 3.5876e+08  24.8%     -   16s
H    0     0                    3.000982e+08 3.5876e+08  19.5%     -   23s
     0     0 3.5876e+08    0 8763 3.0010e+08 3.5876e+08  19.5%     -  833s
H    0     0                    3.008014e+08 3.5876e+08  19.3%     -  849s
H    0     0                    3.016190e+08 3.5876e+08  18.9%     -  954s
H    0     0                    3.016199e+08 3.5876e+08  18.9%     -  973s
H    0     0                    3.016538e+08 3.5876e+08  18.9%     - 1035s
H    0     0                    3.048269e+08 3.5876e+08  17.7%     - 1035s
H    0     0                    3.055253e+08 3.5876e+08  17.4%     - 1091s
H    0     0                    3.056694e+08 3.5876e+08  17.4%     - 1091s
H    0     0                    3.057606e+08 3.5876e+08  17.3%     - 1091s
H    0     0                    3.057939e+08 3.5876e+08  17.3%     - 1091s
H    0     0                    3.059527e+08 3.5876e+08  17.3%     - 1091s
H    0     0                    3.060449e+08 3.5876e+08  17.2%     - 1092s
H    0     0                    3.066503e+08 3.5876e+08  17.0%     - 1123s
H    0     0                    3.073989e+08 3.5876e+08  16.7%     - 1123s
H    0     0                    3.073989e+08 3.5876e+08  16.7%     - 1414s
H    0     0                    3.074019e+08 3.5876e+08  16.7%     - 1414s
H    0     0                    3.074021e+08 3.5876e+08  16.7%     - 1414s
H    0     0                    3.074036e+08 3.5876e+08  16.7%     - 1414s
H    0     0                    3.074038e+08 3.5876e+08  16.7%     - 1414s
H    0     0                    3.074200e+08 3.5876e+08  16.7%     - 1414s
H    0     0                    3.074410e+08 3.5876e+08  16.7%     - 1414s
H    0     0                    3.074975e+08 3.5876e+08  16.7%     - 1495s
H    0     0                    3.077670e+08 3.5876e+08  16.6%     - 1590s
H    0     0                    3.078335e+08 3.5876e+08  16.5%     - 1590s
     0     0 3.5876e+08    0 8764 3.0783e+08 3.5876e+08  16.5%     - 1787s
     0     0 3.5876e+08    0 8963 3.0783e+08 3.5876e+08  16.5%     - 2746s
H    0     0                    3.124676e+08 3.5876e+08  14.8%     - 2756s
H    0     0                    3.179268e+08 3.5876e+08  12.8%     - 2771s
H    0     0                    3.301406e+08 3.5876e+08  8.67%     - 2835s
H    0     0                    3.324172e+08 3.5876e+08  7.92%     - 2926s
H    0     0                    3.324262e+08 3.5876e+08  7.92%     - 3447s
H    0     0                    3.327194e+08 3.5876e+08  7.83%     - 3473s
H    0     0                    3.328581e+08 3.5876e+08  7.78%     - 3496s
H    0     0                    3.333589e+08 3.5876e+08  7.62%     - 3496s
H    0     0                    3.339845e+08 3.5876e+08  7.42%     - 3503s
H    0     0                    3.340981e+08 3.5876e+08  7.38%     - 3503s
H    0     0                    3.341034e+08 3.5876e+08  7.38%     - 3503s
H    0     0                    3.342110e+08 3.5876e+08  7.34%     - 3503s
H    0     0                    3.342931e+08 3.5876e+08  7.32%     - 3503s
H    0     0                    3.344724e+08 3.5876e+08  7.26%     - 3511s
H    0     0                    3.346099e+08 3.5876e+08  7.22%     - 3511s
H    0     0                    3.346134e+08 3.5876e+08  7.21%     - 3511s
H    0     0                    3.353532e+08 3.5876e+08  6.98%     - 3511s
H    0     0                    3.354089e+08 3.5876e+08  6.96%     - 3511s
H    0     0                    3.364952e+08 3.5876e+08  6.62%     - 3525s
H    0     0                    3.365098e+08 3.5876e+08  6.61%     - 3526s
H    0     0                    3.367769e+08 3.5876e+08  6.53%     - 3526s
H    0     0                    3.367769e+08 3.5876e+08  6.53%     - 3549s
H    0     0                    3.368666e+08 3.5876e+08  6.50%     - 3571s
H    0     0                    3.369320e+08 3.5876e+08  6.48%     - 3571s
H    0     0                    3.370296e+08 3.5876e+08  6.45%     - 3581s
H    0     0                    3.371042e+08 3.5876e+08  6.42%     - 3586s
H    0     0                    3.371877e+08 3.5876e+08  6.40%     - 3586s
H    0     0                    3.373266e+08 3.5876e+08  6.35%     - 3586s
     0     0          -    0      3.3733e+08 3.5876e+08  6.35%     - 3600s

Cutting planes:
  MIR: 4
  Flow cover: 33
  RLT: 2833

Explored 1 nodes (818869 simplex iterations) in 3600.09 seconds (5855.82 work units)
Thread count was 20 (of 20 available processors)

Solution count 10: 3.37327e+08 3.37188e+08 3.37104e+08 ... 3.35353e+08

Time limit reached
Warning: max constraint violation (2.5393e-06) exceeds tolerance
Best objective 3.373266390132e+08, best bound 3.587553318318e+08, gap 6.3525%
